<number of tasks>
50

<cycle time>
1000

<order strength>
0.596


<task times>
1 316
2 148
3 181
4 275
5 256
6 131
7 230
8 104
9 282
10 89
11 105
12 78
13 327
14 249
15 125
16 97
17 144
18 315
19 76
20 302
21 116
22 71
23 168
24 200
25 83
26 66
27 160
28 63
29 49
30 67
31 54
32 30
33 163
34 109
35 231
36 248
37 122
38 90
39 142
40 166
41 88
42 253
43 132
44 144
45 117
46 104
47 224
48 138
49 139
50 183

<precedence relations>
1,4
1,6
2,5
2,6
3,5
3,6
4,7
5,8
5,9
5,10
5,11
6,8
6,9
6,10
6,11
7,12
8,13
8,16
8,23
9,14
9,17
9,18
10,15
10,16
10,17
10,18
11,16
11,17
11,18
12,22
13,19
14,20
15,21
16,22
17,22
17,23
18,22
18,23
19,24
20,25
21,26
22,25
22,26
22,27
23,25
23,26
23,27
24,29
25,28
25,30
25,31
26,30
26,31
27,30
28,34
29,32
30,33
30,35
31,36
31,37
32,38
33,39
34,41
35,40
36,41
36,42
36,43
37,41
37,42
37,43
38,44
39,47
40,46
41,47
41,48
42,45
42,50
44,50
45,49
46,50
48,50

<end>
